&input
fildyn='PbO.dyn',
asr='crystal',
filout='PbO.modes'
filmol='PbO.molden'
filxsf='PbO.axsf'
q(1)=0.1, q(2)=0.0, q(3)=0.0
/
