&input
fildyn='Si.dyn',
asr='crystal',
filout='Si.modes'
filmol='Si.molden'
filxsf='Si.axsf'
/
