&control
    calculation = 'scf'
    restart_mode='from_scratch',
    prefix='Si',
    tprnfor = .true.
    pseudo_dir = '../',
    outdir='TMP_DIR/',
    forc_conv_thr = 0.0002
/
 &system
    ibrav=0, nat= 2, ntyp= 1,
    ecutwfc =70.0, input_dft = 'lda'
 /
 &electrons
    conv_thr =  1.0d-10
 /
&ions
 ion_dynamics = 'bfgs'
 /
&cell
 cell_dynamics = 'bfgs',
 press = 0.0,
 press_conv_thr = 0.01
/
ATOMIC_SPECIES
 Si  14.0  Si.nc.UPF
ATOMIC_POSITIONS {crystal}
Si       0.00 0.00 0.00
Si       0.25 0.25 0.25
K_POINTS {automatic}
6 6 6 1 1 1
CELL_PARAMETERS (angstrom)
XXX
