&bands
  outdir='TMP_DIR'
  prefix='C'
  filband='bands.out'
/
