&control
    calculation = 'bands'
    restart_mode='from_scratch',
    prefix='C',
    pseudo_dir = '../',
    outdir='TMP_DIR/',
    wf_collect=.true.
    verbosity='high'
 /
 &system
    ibrav=0, nat= 2, ntyp= 1,
    ecutwfc =90.0, input_dft = 'pbesol', nbnd=20
 /
 &electrons
    conv_thr =  1.0d-10
 /
ATOMIC_SPECIES
 C  12.0  C.nc.UPF
ATOMIC_POSITIONS (crystal)
C       0.00 0.00 0.00
C       0.25 0.25 0.25
K_POINTS (crystal_b)
4
0.500  0.500  0.500  50
0.000  0.000  0.000  50
0.500  0.000  0.500  50
0.625  0.250  0.625   1
CELL_PARAMETERS (angstrom)
XXX