num_bands         = 10
num_wann          = 10
exclude_bands : 11-12

iprint = 2
#dis_num_iter =  500
#dis_win_min =  -100.000
#dis_win_max =   17.200
#dis_froz_min = -100.000
#dis_froz_max  = 3.0

num_iter          = 5000
num_print_cycles  = 50

begin unit_cell_cart
ang
   0.000000000   1.786507378   1.786507378
   1.786507378   1.786507378   0.000000000
   1.786507378   0.000000000   1.786507378
end unit_cell_cart

begin atoms_frac
C       0.00   0.00   0.00
C       0.25   0.25   0.25
End atoms_frac
    
begin projections
random
C : sp3
end projections   
    
BANDS_PLOT = TRUE
BANDS_PLOT_FORMAT = gnuplot
BANDS_NUM_POINTS = 200

    
begin kpoint_path
L 0.500  0.500  0.500    G 0.000  0.00  0.000
G 0.000  0.000  0.000    X 0.500  0.00  0.500
X 0.500  0.000  0.500    U 0.625  0.25  0.625
U 0.625  0.250  0.625    G 0.000  0.00  0.000
end kpoint_path

guiding_centres = T


mp_grid      = 5 5 5

begin kpoints
    0.000000000000000    0.000000000000000    0.000000000000000
    0.000000000000000    0.000000000000000    0.200000000000000
    0.000000000000000    0.000000000000000    0.400000000000000
    0.000000000000000    0.000000000000000   -0.400000000000000
    0.000000000000000    0.000000000000000   -0.200000000000000
    0.000000000000000    0.200000000000000    0.000000000000000
    0.000000000000000    0.200000000000000    0.200000000000000
    0.000000000000000    0.200000000000000    0.400000000000000
    0.000000000000000    0.200000000000000   -0.400000000000000
    0.000000000000000    0.200000000000000   -0.200000000000000
    0.000000000000000    0.400000000000000    0.000000000000000
    0.000000000000000    0.400000000000000    0.200000000000000
    0.000000000000000    0.400000000000000    0.400000000000000
    0.000000000000000    0.400000000000000   -0.400000000000000
    0.000000000000000    0.400000000000000   -0.200000000000000
    0.000000000000000   -0.400000000000000    0.000000000000000
    0.000000000000000   -0.400000000000000    0.200000000000000
    0.000000000000000   -0.400000000000000    0.400000000000000
    0.000000000000000   -0.400000000000000   -0.400000000000000
    0.000000000000000   -0.400000000000000   -0.200000000000000
    0.000000000000000   -0.200000000000000    0.000000000000000
    0.000000000000000   -0.200000000000000    0.200000000000000
    0.000000000000000   -0.200000000000000    0.400000000000000
    0.000000000000000   -0.200000000000000   -0.400000000000000
    0.000000000000000   -0.200000000000000   -0.200000000000000
    0.200000000000000    0.000000000000000    0.000000000000000
    0.200000000000000    0.000000000000000    0.200000000000000
    0.200000000000000    0.000000000000000    0.400000000000000
    0.200000000000000    0.000000000000000   -0.400000000000000
    0.200000000000000    0.000000000000000   -0.200000000000000
    0.200000000000000    0.200000000000000    0.000000000000000
    0.200000000000000    0.200000000000000    0.200000000000000
    0.200000000000000    0.200000000000000    0.400000000000000
    0.200000000000000    0.200000000000000    0.600000000000000
    0.200000000000000    0.200000000000000   -0.200000000000000
    0.200000000000000    0.400000000000000    0.000000000000000
    0.200000000000000    0.400000000000000    0.200000000000000
    0.200000000000000    0.400000000000000    0.400000000000000
    0.200000000000000    0.400000000000000   -0.400000000000000
    0.200000000000000    0.400000000000000    0.800000000000000
    0.200000000000000   -0.400000000000000    0.000000000000000
    0.200000000000000    0.600000000000000    0.200000000000000
    0.200000000000000   -0.400000000000000    0.400000000000000
   -0.800000000000000   -0.400000000000000   -0.400000000000000
   -0.800000000000000   -0.400000000000000   -0.200000000000000
    0.200000000000000   -0.200000000000000    0.000000000000000
    0.200000000000000   -0.200000000000000    0.200000000000000
    0.200000000000000   -0.200000000000000   -0.600000000000000
    0.200000000000000   -0.200000000000000    0.600000000000000
    0.200000000000000   -0.200000000000000   -0.200000000000000
    0.400000000000000    0.000000000000000    0.000000000000000
    0.400000000000000    0.000000000000000    0.200000000000000
    0.400000000000000    0.000000000000000    0.400000000000000
    0.400000000000000    0.000000000000000   -0.400000000000000
    0.400000000000000    0.000000000000000   -0.200000000000000
    0.400000000000000    0.200000000000000    0.000000000000000
    0.400000000000000    0.200000000000000    0.200000000000000
    0.400000000000000    0.200000000000000    0.400000000000000
   -0.600000000000000   -0.800000000000000   -0.400000000000000
   -0.600000000000000    0.200000000000000   -0.200000000000000
    0.400000000000000    0.400000000000000    0.000000000000000
    0.400000000000000    0.400000000000000    0.200000000000000
    0.400000000000000    0.400000000000000    0.400000000000000
    0.400000000000000    0.400000000000000    0.600000000000000
    0.400000000000000    0.400000000000000    0.800000000000000
    0.400000000000000   -0.400000000000000    0.000000000000000
    0.400000000000000   -0.400000000000000    0.200000000000000
    0.400000000000000    0.600000000000000    0.400000000000000
   -0.600000000000000   -0.400000000000000   -0.400000000000000
    0.400000000000000   -0.400000000000000   -0.200000000000000
    0.400000000000000   -0.200000000000000    0.000000000000000
    0.400000000000000    0.800000000000000    0.200000000000000
    0.400000000000000    0.800000000000000    0.400000000000000
    0.400000000000000   -0.200000000000000   -0.400000000000000
   -0.600000000000000   -0.200000000000000   -0.200000000000000
   -0.400000000000000    0.000000000000000    0.000000000000000
   -0.400000000000000    0.000000000000000    0.200000000000000
   -0.400000000000000    0.000000000000000    0.400000000000000
   -0.400000000000000    0.000000000000000   -0.400000000000000
   -0.400000000000000    0.000000000000000   -0.200000000000000
   -0.400000000000000    0.200000000000000    0.000000000000000
    0.600000000000000    0.200000000000000    0.200000000000000
   -0.400000000000000    0.200000000000000    0.400000000000000
   -0.400000000000000   -0.800000000000000   -0.400000000000000
   -0.400000000000000   -0.800000000000000   -0.200000000000000
   -0.400000000000000    0.400000000000000    0.000000000000000
   -0.400000000000000    0.400000000000000    0.200000000000000
    0.600000000000000    0.400000000000000    0.400000000000000
   -0.400000000000000   -0.600000000000000   -0.400000000000000
   -0.400000000000000    0.400000000000000   -0.200000000000000
   -0.400000000000000   -0.400000000000000    0.000000000000000
   -0.400000000000000   -0.400000000000000   -0.800000000000000
   -0.400000000000000   -0.400000000000000   -0.600000000000000
   -0.400000000000000   -0.400000000000000   -0.400000000000000
   -0.400000000000000   -0.400000000000000   -0.200000000000000
   -0.400000000000000   -0.200000000000000    0.000000000000000
    0.600000000000000   -0.200000000000000    0.200000000000000
    0.600000000000000    0.800000000000000    0.400000000000000
   -0.400000000000000   -0.200000000000000   -0.400000000000000
   -0.400000000000000   -0.200000000000000   -0.200000000000000
   -0.200000000000000    0.000000000000000    0.000000000000000
   -0.200000000000000    0.000000000000000    0.200000000000000
   -0.200000000000000    0.000000000000000    0.400000000000000
   -0.200000000000000    0.000000000000000   -0.400000000000000
   -0.200000000000000    0.000000000000000   -0.200000000000000
   -0.200000000000000    0.200000000000000    0.000000000000000
   -0.200000000000000    0.200000000000000    0.200000000000000
   -0.200000000000000    0.200000000000000   -0.600000000000000
   -0.200000000000000    0.200000000000000    0.600000000000000
   -0.200000000000000    0.200000000000000   -0.200000000000000
   -0.200000000000000    0.400000000000000    0.000000000000000
    0.800000000000000    0.400000000000000    0.200000000000000
    0.800000000000000    0.400000000000000    0.400000000000000
   -0.200000000000000    0.400000000000000   -0.400000000000000
   -0.200000000000000   -0.600000000000000   -0.200000000000000
   -0.200000000000000   -0.400000000000000    0.000000000000000
   -0.200000000000000   -0.400000000000000   -0.800000000000000
   -0.200000000000000   -0.400000000000000    0.400000000000000
   -0.200000000000000   -0.400000000000000   -0.400000000000000
   -0.200000000000000   -0.400000000000000   -0.200000000000000
   -0.200000000000000   -0.200000000000000    0.000000000000000
   -0.200000000000000   -0.200000000000000    0.200000000000000
   -0.200000000000000   -0.200000000000000   -0.600000000000000
   -0.200000000000000   -0.200000000000000   -0.400000000000000
   -0.200000000000000   -0.200000000000000   -0.200000000000000
 end kpoints
