&inputpp
  prefix='C',
  outdir='../c/TMP_DIR'
/
