&control
    calculation = 'scf'
    prefix='Ar',
    tprnfor = .true.
    pseudo_dir = './',
    outdir='TMP_DIR/',
    forc_conv_thr = 0.0004
 /
 &system
    ibrav=0, nat= 1, ntyp= 1,
    ecutwfc =80.0, input_dft = 'hse',
    nbnd=8
 /
 &electrons
    conv_thr =  1.0d-10
 /
&ions
 ion_dynamics = 'bfgs'
 /
&cell
 cell_dynamics = 'bfgs',
 press = 0.0
 /
ATOMIC_SPECIES
  Ar  39.9   Ar.upf
ATOMIC_POSITIONS (crystal)
  Ar   0.0000000000000000   0.0000000000000000   0.000000000000000
K_POINTS {automatic}
6 6 6 0 0 0
CELL_PARAMETERS (angstrom)
   2.630000000   2.630000000   0.000000000
   2.630000000   0.000000000   2.630000000
   0.000000000   2.630000000   2.630000000
