&control
    calculation = 'scf'
    restart_mode='from_scratch',
    prefix='Si',
    tprnfor = .true.
    pseudo_dir = '../',
    outdir='TMP_DIR/',
    forc_conv_thr = 0.0004
 /
 &system
    ibrav=0, celldm(1)=1.889725989, nat= 2, ntyp= 1,
    ecutwfc =65.0, ecutrho=520.0, input_dft = 'pbesol',
    occupations='smearing', smearing='gaussian', degauss=0.01
 /
 &electrons
    conv_thr =  1.0d-8
 /
&ions
 ion_dynamics = 'bfgs'
 /
&cell
 cell_dynamics = 'bfgs',
 press = 0.0,
 press_conv_thr = 0.01
 cell_factor = 1.1
 /
ATOMIC_SPECIES
 Si  14.0  Si.gbrv.UPF
ATOMIC_POSITIONS (crystal)
Si       0.00 0.00 0.00
Si       0.25 0.25 0.25
K_POINTS {automatic}
6 6 6 0 0 0
CELL_PARAMETERS (alat=  1.88972599)
  -0.000000000   2.737747197   2.737747197
   2.737747197   2.737747197  -0.000000000
   2.737747197  -0.000000000   2.737747197