&bands
  outdir='TMP_DIR'
  prefix='Sb'
  filband='bands.out'
/
