--
&inputph
  prefix   = 'Si',
  outdir   = 'TMP_DIR',
  tr2_ph   =  1.0d-15,
  amass(1) = 28.086,
  ldisp    = .true.,
  nq1=6, nq2=6, nq3=6,
  fildyn   = 'Si.dyn'
 /