&input
  fildyn='Si.dyn'
  flfrc='Si.FC'
/