&control
    calculation = 'scf'
    prefix='Fe',
    tprnfor = .true.
    pseudo_dir = '../',
    outdir='TMP_DIR/'
    forc_conv_thr = 0.0004
 /
 &system
    ibrav=0, nat= 1, ntyp= 1,
    ecutwfc =90.0, input_dft = 'pbesol',
    occupations='smearing', smearing='cold', degauss=0.01,
    nspin=2, starting_magnetization(1)=1.0
 /
 &electrons
    conv_thr =  1.0d-7
 /
ATOMIC_SPECIES
 Fe  31.0  Fe.nc.UPF
ATOMIC_POSITIONS (crystal)
  Fe   0.0000000000000000   0.0000000000000000   0.0000000000000000
K_POINTS {automatic}
6 6 6 1 1 1
CELL_PARAMETERS (angstrom)
       1.435000000000000       1.435000000000000       1.435000000000000
       1.435000000000000      -1.435000000000000       1.435000000000000
       1.435000000000000       1.435000000000000      -1.435000000000000