&control
    calculation = 'vc-relax'
    prefix='BN',
    tprnfor = .true.
    pseudo_dir = './',
    outdir='TMP_DIR/',
    forc_conv_thr = 0.0002
 /
 &system
    ibrav=0, nat= 4, ntyp= 2,
    ecutwfc =XXX, input_dft = 'vdw-df-obk8'
 /
 &electrons
    conv_thr =  1.0d-10
 /
&ions
 ion_dynamics = 'bfgs'
 /
&cell
 cell_dynamics = 'bfgs',
 press = 0.0,
 press_conv_thr = 0.01
 /
ATOMIC_SPECIES
  B  10.0   B.nc.UPF
  N  14.0   N.nc.UPF
ATOMIC_POSITIONS (crystal)
  B   0.0000000000000000   0.0000000000000000   0.2500000000000000
  N   0.3333333333333333   0.3333333333333333   0.2500000000000000
  B   0.3333333333333333   0.3333333333333333   0.7500000000000000
  N   0.0000000000000000   0.0000000000000000   0.7500000000000000
K_POINTS {automatic}
12 12 4 0 0 1
CELL_PARAMETERS (angstrom)
       2.500000000000000       0.0000000000000000       0.000000000000000
       1.250000000000000       2.1650635094610966       0.000000000000000
       0.000000000000000       0.0000000000000000       6.660000000000000