&control
    calculation = 'scf'
    prefix='BN',
    tprnfor = .true.
    pseudo_dir = '../',
    outdir='TMP_DIR/',
    forc_conv_thr = 0.0002
 /
 &system
    ibrav=0, nat= 2, ntyp= 2,
    ecutwfc =90.0, input_dft = 'pbe'
 /
 &electrons
    conv_thr =  1.0d-10
 /
ATOMIC_SPECIES
  B  10.0   B.nc.UPF
  N  14.0   N.nc.UPF
ATOMIC_POSITIONS (crystal)
  B   0.0000000000000000   0.0000000000000000   0.2500000000000000
  N   0.3333333333333333   0.3333333333333333   0.2500000000000000
K_POINTS {automatic}
12 12 1 0 0 0
CELL_PARAMETERS (angstrom)
   2.510948920  -0.000000000  -0.000000000
   1.255474460   2.174545553  -0.000000000
0.0 0.0 20.0