&projwfc
  outdir='TMP_DIR'
  prefix='Al2S2'
  degauss=0.01
/
