&control
    calculation = 'vc-relax'
    prefix='MgO',
    tprnfor = .true.
    pseudo_dir = './',
    outdir='TMP_DIR/',
    forc_conv_thr = 0.0004
 /
 &system
    ibrav=0, nat= 2, ntyp= 2,
    ecutwfc =110.0, input_dft = 'pbesol'
 /
 &electrons
    conv_thr =  1.0d-10
 /
&ions
 ion_dynamics = 'bfgs'
 /
&cell
 cell_dynamics = 'bfgs',
 press = 0.0,
 press_conv_thr = 0.01
/
ATOMIC_SPECIES
 Mg  14.0  Mg.nc.UPF
 O   14.0   O.nc.UPF
ATOMIC_POSITIONS (crystal)
Mg   0.0  0.0  0.0
O    0.5  0.5  0.5
K_POINTS {automatic}
14 14 14 1 1 1
CELL_PARAMETERS (angstrom)
   2.632786751   0.000000000   0.000000000
   0.000000000   2.632786751   0.000000000
   0.000000000   0.000000000   2.632786751