&control
    calculation = 'scf'
    restart_mode='from_scratch',
    prefix='Si',
    tprnfor = .true.
    pseudo_dir = '../../',
    outdir='TMP_DIR/'
 /
 &system
    ibrav=2, A=5.4, nat= 2, ntyp= 1,
    ecutwfc =70.0, input_dft = 'lda'
 /
 &electrons
    conv_thr =  1.0d-14
 /

ATOMIC_SPECIES
 Si  28.086  Si.nc.UPF
ATOMIC_POSITIONS {crystal}
Si       0.00 0.00 0.00
Si       0.25 0.25 0.25
K_POINTS {automatic}
6 6 6 1 1 1