&control
    calculation = 'scf'
    restart_mode='from_scratch',
    prefix='SiO2',
    tprnfor = .true.
    pseudo_dir = '../',
    outdir='TMP_DIR/',
    forc_conv_thr = 0.0004,  !!! Toleranz fuer interatomare Kräfte
 /
 &system
    ibrav=0, nat= 72, ntyp= 3,
    ecutwfc =65.0, ecutrho=520.0, input_dft = 'pbesol', 
    occupations='smearing', smearing='gaussian', degauss=0.01, nbnd=224
    nspin=2, starting_magnetization(2)=1.0
 /
 &electrons
    conv_thr =  1.0d-8
 /
&ions
 ion_dynamics = 'bfgs'
 /
&cell
 cell_dynamics = 'bfgs',
 press = 0.0,
 press_conv_thr = 0.01
/
ATOMIC_SPECIES
 Si  28.0  Si.gbrv.UPF
  O  16.0   O.gbrv.UPF
 Al  26.0  Al.gbrv.UPF
ATOMIC_POSITIONS (crystal)
O        0.204747792   0.130792502   0.105741349
O        0.367317123   0.075549596   0.273813909
O        0.426283705   0.295292314   0.440554600
O        0.133018901   0.207851462   0.390220300
O        0.060504825   0.359000496   0.220501613
O        0.284528218   0.422724823   0.054283311
O        0.713220363   0.140597115   0.107417927
O        0.863860833   0.067948992   0.273892625
O        0.925025507   0.291277770   0.439593813
O        0.632682877   0.208232474   0.392852758
O        0.573716295   0.369008609   0.226112066
O        0.795026290   0.432437800   0.059397717
O        0.201451230   0.630046147   0.105655050
O        0.353291878   0.554324620   0.271801294
O        0.427609030   0.794358158   0.449420796
O        0.136139167   0.704088159   0.392774042
O        0.074974493   0.866252264   0.227072854
O        0.296440199   0.926660740   0.061203693
O        0.707373849   0.637563641   0.110005898
O        0.866981099   0.574832561   0.276446367
O        0.939495175   0.798495672   0.446165053
O        0.646708122   0.701032742   0.394865372
O        0.572390970   0.866749127   0.217245871
O        0.795834224   0.930542662   0.055332189
O        0.204973710   0.137411510   0.607268949
O        0.366955345   0.075484672   0.772259198
O        0.424373631   0.293749933   0.939223445
O        0.128108591   0.201289617   0.891731698
O        0.072424920   0.364241493   0.724072259
O        0.292626151   0.430189792   0.556660768
O        0.703559801   0.130220540   0.605462973
O        0.861726146   0.072746318   0.775398662
O        0.928541248   0.299484037   0.938132220
O        0.633044655   0.208529326   0.894407468
O        0.575626369   0.369376301   0.727443222
O        0.795252208   0.426044710   0.560925318
O        0.204165776   0.634708438   0.611334478
O        0.365990308   0.570796145   0.773907229
O        0.428212691   0.791494019   0.941517784
O        0.138273854   0.711020172   0.891268005
O        0.071458752   0.870942789   0.728534447
O        0.286779637   0.927376753   0.559248739
O        0.715471782   0.638196605   0.612383356
O        0.871891409   0.573181026   0.774934968
O        0.927575080   0.791816572   0.942594407
O        0.634009692   0.704805836   0.892759437
O        0.571787309   0.863281328   0.725148883
O        0.798548770   0.928594917   0.561011617
Al       0.500000000   0.727437128   0.333333333
Si       0.236530124   0.000025044   0.166953466
Si      -0.003648331   0.232238120   0.331889495
Si       0.260643321   0.260541085  -0.002159664
Si       0.735786607   0.001740760   0.163270812
Si       0.500000000   0.237906774   0.333333333
Si       0.767017721   0.270435831  -0.000177825
Si       0.225614421   0.492641524   0.163897271
Si       0.003648331   0.735886451   0.334777171
Si       0.266455791   0.764644206   0.000554055
Si       0.736564450   0.503566017   0.168310669
Si       0.765326431   0.765264469   0.000144910
Si       0.232982279   0.003418110   0.666844492
Si      -0.002334791   0.235082186   0.832461287
Si       0.263435550   0.267001567   0.498355998
Si       0.733544209  -0.001811585   0.666112612
Si       0.500000000   0.236598383   0.833333333
Si       0.763469876   0.263494920   0.499713201
Si       0.234673569   0.499938037   0.666521757
Si       0.002334791   0.737416976   0.834205380
Si       0.264213393   0.765954153   0.503395855
Si       0.739356679   0.499897763   0.668826331
Si       0.500000000   0.733011682   0.833333333
Si       0.774385579   0.767027103   0.502769395
K_POINTS {automatic}
2 2 2 1 1 1
CELL_PARAMETERS (angstrom)
       8.577599996      -4.952279666       0.000000000
       0.000000000       9.904559332       0.000000000
       0.000000000       0.000000000      10.889824964