&control
    calculation = 'relax'
    restart_mode='from_scratch',
    prefix='C',
    tprnfor = .true.
    pseudo_dir = './',
    outdir='TMP_DIR/',
    forc_conv_thr = 0.001
 /
 &system
    ibrav=0, celldm(1)=1.889725989, nat= 8, ntyp= 2,
    ecutwfc =100.0, input_dft = 'pbesol',
    occupations='smearing', smearing='cold', degauss=0.01
 /
 &electrons
    conv_thr =  1.0d-7
 /
&ions
 ion_dynamics = 'bfgs'
 /
ATOMIC_SPECIES
 C  12.0  C.nc.UPF
 H   1.0  H.nc.UPF
ATOMIC_POSITIONS (crystal)
  H   0.7465218735405372   0.6249647580440652   0.0000000000000000
  H   0.2974742299583990   0.3209265578109959   0.0000000000000000
  C   0.7838198018777500   0.4657172045113587   0.0000000000000000
  C   0.7838198018777500   0.5842532216485156   0.0000000000000000
  C   0.3459515447273900   0.5482172048248336   0.0000000000000000
  C   0.2503481507509497   0.4761451707784993   0.0000000000000000
  C   0.6853849392717897   0.4107177892350122   0.0000000000000000
  C   0.2239353048309201   0.3701671937826409   0.0000000000000000
K_POINTS {automatic}
9 1 1 0 0 0
CELL_PARAMETERS (alat=  1.88972599)
       2.500000000000000       0.000000000000000       0.000000000000000
       0.000000000000000      28.000000000000000       0.000000000000001
       0.000000000000000       0.000000000000000      15.000000000000000